<number of tasks>
50

<cycle time>
1000

<order strength>
0.596


<task times>
1 200
2 204
3 32
4 145
5 197
6 72
7 46
8 65
9 112
10 205
11 112
12 248
13 35
14 132
15 321
16 541
17 135
18 297
19 202
20 517
21 337
22 282
23 138
24 170
25 456
26 169
27 129
28 267
29 126
30 194
31 26
32 203
33 608
34 587
35 340
36 124
37 294
38 108
39 49
40 80
41 175
42 340
43 77
44 60
45 81
46 482
47 498
48 43
49 249
50 32

<precedence relations>
1,8
2,8
3,8
4,8
5,37
6,9
6,10
6,11
7,8
7,9
7,18
8,12
8,13
8,14
8,15
8,16
8,17
9,16
10,18
10,22
11,16
11,17
11,18
12,36
13,19
13,21
13,22
14,19
14,21
15,19
15,20
15,21
15,22
16,19
16,21
16,26
17,30
17,31
18,28
18,39
19,36
20,36
21,23
21,30
21,33
21,34
22,23
22,24
23,36
24,25
24,26
24,27
24,28
25,37
26,29
27,29
27,30
27,31
28,30
29,36
30,37
31,32
31,33
31,34
31,35
32,36
33,37
34,38
34,39
35,36
35,39
36,40
36,41
36,42
36,43
36,44
36,50
37,45
37,46
37,47
37,48
37,49
39,50
40,49
41,49
46,50

<end>
